COMMENT : 48 capitals of the US (Padberg/Rinaldi)
6734 2233 5530 401 3082 7608 7573 7265 6898 1112 5468 5989 4706 4612 6347 6107 7611 7462 7732 5900 4483 6101 5199 1633 4307 675 7555 7541 3177 7352 7545 3245 6426 4608 23 7248 7762 7392 3484 6271 4985 1916 7280 7509 10 6807 5185 3023
1453 10 1424 841 1644 4458 3716 1268 1885 2049 2606 2873 2674 2035 2683 669 5184 3590 4723 3561 3369 1110 2182 2809 2322 1006 4819 3981 756 4506 2801 3305 3173 1198 2216 3779 4595 2244 2829 2135 140 1569 4899 3239 2676 2993 3258 1942
137386 131089 131089 131089 131089 126516 126516 126516 126516 125848 125848 125848 125848 125848 122865 122865 122865 122865 122865 122865 122865 122865 122865 122865 122865 122865 122865 122865 122865 122865 122865 122865 122865 122865 122865 122865 122865 122865 122865 122176 118805 118805 118805 118805 118805 118805 118189 118189 118189 118189 111098 111098 111098 111098 111098 111098 111098 111098 111098 111098 111098 111098 111098 111098 111098 111098 111098 111098 111098 111098 111098 111098 111098 111098 111098 111098 111098 111098 111098 111098 111098 111098 111098 111098 110263 110263 110263 110263 110263 110263 110263 110263 110263 109021 109021 109021 109021 107945 107945 107945 107945 107945 107945 107945 107945 107945 107945 107945 107945 107945 107945 107945 107945 107945 107945 107945 107945 107945 107945 105653 105653 105653 105653 105653 105653 105653 105653 105653 105653 105653 105653 105653 105653 105653 105653 105653 105653 105653 105653 105653 105653 105653 105653 105653 105653 105653 105653 105653 105653 105653 105653 105653 105653 102808 102808 102808 102808 102808 102808 102808 102808 102808 102808 102808 102808 102808 102808 102808 102808 99635.3 99635.3 99635.3 99635.3 99635.3 99635.3 99635.3 97674.8 97674.8 97674.8 96564.1 96564.1 96564.1 96564.1 96564.1 92016.1 92016.1 92016.1 92016.1 92016.1 92016.1 92016.1 92016.1 92016.1 92016.1 92016.1 92016.1 92016.1 92016.1 92016.1 92016.1 92016.1 92016.1 92016.1 92016.1 92016.1 92016.1 92016.1 92016.1 92016.1 92016.1 92016.1 92016.1 92016.1 92016.1 92016.1 92016.1 92016.1 92016.1 92016.1 92016.1 92016.1 92016.1 92016.1 92016.1 92016.1 92016.1 92016.1 92016.1 82130.1 82130.1 82130.1 82130.1 82130.1 82130.1 82130.1 82130.1 82130.1 82130.1 82130.1 82130.1 82130.1 82130.1 79854.6 79854.6 79854.6 79854.6 79854.6 79854.6 79854.6 79854.6 79854.6 79854.6 79854.6 79854.6 79854.6 79854.6 79854.6 79854.6 79854.6 79854.6 79854.6 79854.6 79854.6 79854.6 79854.6 79854.6 79854.6 79854.6 79854.6 79854.6 79854.6 79854.6 79854.6 79854.6 79854.6 79854.6 79854.6 79854.6 79854.6 79765.8 79765.8 79765.8 79765.8 78917.4 78917.4 78917.4 78917.4 78917.4 78917.4 77364.6 77364.6 77364.6 75136.3 75136.3 75136.3 75136.3 75136.3 75136.3 75136.3 75136.3 75136.3 75136.3 75136.3 75136.3 75136.3 75136.3 75136.3 75136.3 75136.3 75136.3 75136.3 75136.3 75136.3 75136.3 75136.3 75136.3 75136.3 74777.3 74777.3 73945 73945 73945 73945 73945 73664.4 73664.4 73603.4 72982.2 72982.2 72982.2 72982.2 72982.2 72982.2 72982.2 72982.2 72982.2 72982.2 72356.5 72356.5 72356.5 72356.5 72356.5 72356.5 69276.3 69276.3 69276.3 69276.3 69276.3 69276.3 69276.3 69276.3 69276.3 69276.3 69276.3 69276.3 69276.3 69276.3 69276.3 69276.3 67812.1 67812.1 67812.1 67812.1 67812.1 67812.1 67812.1 67812.1 67812.1 67812.1 65977 65977 65977 65977 65977 65977 65977 65977 65977 65977 65977 65977 65977 65977 65977 65977 65977 65977 65977 65977 65977 65977 64837.1 64837.1 64837.1 64837.1 64837.1 64837.1 64070.5 64070.5 64070.5 64070.5 64070.5 64070.5 64070.5 64070.5 64070.5 64070.5 64070.5 63262.4 63262.4 63262.4 62271.3 62271.3 62271.3 62271.3 62271.3 62084 62084 62084 62084 62084 62084 62084 62084 62084 62084 62084 62084 62084 61485.7 61485.7 61456.7 61238 61238 61238 61098.4 61098.4 60903.9 60903.9 60903.9 60903.9 60903.9 60903.9 60903.9 60903.9 60903.9 60903.9 60903.9 60903.9 60903.9 60903.9 60903.9 60903.9 60903.9 60903.9 60903.9 60903.9 60543.4 60543.4 60543.4 60543.4 60543.4 60543.4 60543.4 60543.4 60543.4 60543.4 60543.4 60543.4 60543.4 60543.4 60543.4 60504.5 60504.5 60504.5 60504.5 60504.5 60504.5 60504.5 60504.5 60504.5 60504.5 60504.5 60504.5 60504.5 60504.5 60504.5 60504.5 60504.5 60504.5 60504.5 60504.5 60504.5 60504.5 60117.2 60078.2 60078.2 60078.2 60078.2 60078.2 60078.2 60078.2 60078.2 60078.2 60078.2 60078.2 60078.2 60078.2 60078.2 60078.2 60078.2 60078.2 60078.2 60078.2 60078.2 60078.2 60078.2 60078.2 60078.2 60078.2 60078.2 60078.2 60078.2 60078.2 60078.2 60078.2 60078.2 60078.2 60078.2 60078.2 60078.2 60078.2 60078.2 60078.2 60078.2 60078.2 60078.2 60078.2 60078.2 60078.2 60078.2 59946.7 59946.7 59946.7 59946.7 59946.7 59946.7 59946.7 59946.7 59946.7 59946.7 59946.7 59946.7 59946.7 59946.7 59946.7 59946.7 59946.7 59946.7 59946.7 59946.7 59946.7 59946.7 59946.7 59946.7 59946.7 59946.7 59946.7 59946.7 59946.7 59946.7 59946.7 59946.7 59946.7 59946.7 59946.7 59946.7 59946.7 59709.8 59709.8 59709.8 59709.8 59709.8 59709.8 59709.8 59709.8 59709.8 59709.8 59709.8 59709.8 59709.8 59709.8 59709.8 59709.8 59709.8 59709.8 59709.8 59709.8 59709.8 59709.8 59709.8 59709.8 59709.8 59709.8 59709.8 59709.8 59709.8 59709.8 59709.8 59709.8 59709.8 59709.8 59709.8 59709.8 59709.8 59709.8 59709.8 59709.8 59709.8 59709.8 59709.8 59709.8 59709.8 59709.8 59709.8 59709.8 59709.8 59690 59690 59478.4 59478.4 59478.4 59478.4 59478.4 59478.4 59478.4 59155.6 59155.6 59155.6 59155.6 59155.6 59155.6 59155.6 59155.6 59155.6 59155.6 59155.6 59155.6 59155.6 59155.6 59155.6 59155.6 59155.6 59155.6 59155.6 59155.6 59155.6 59155.6 59155.6 59155.6 59155.6 59155.6 59155.6 59155.6 59155.6 59155.6 59155.6 59155.6 59155.6 59155.6 59155.6 59155.6 59155.6 59155.6 59155.6 59155.6 59155.6 59155.6 59155.6 59155.6 59155.6 59155.6 59155.6 59155.6 59155.6 59155.6 59155.6 59155.6 59155.6 59155.6 59155.6 59155.6 59155.6 59155.6 59155.6 59155.6 59155.6 59155.6 59155.6 59155.6 59155.6 59155.6 59155.6 59155.6 59155.6 59155.6 59155.6 59155.6 59155.6 59155.6 59155.6 59155.6 59155.6 59155.6 59155.6 59155.6 59155.6 59155.6 59155.6 59155.6 59155.6 59155.6 59155.6 59155.6 59155.6 59155.6 59155.6 59155.6 59155.6 59155.6 59155.6 59155.6 59155.6 59155.6 59155.6 59155.6 59155.6 59155.6 59155.6 59155.6 59155.6 59155.6 59155.6 59155.6 59155.6 59155.6 59155.6 59155.6 59155.6 59155.6 59155.6 59155.6 59155.6 59155.6 59155.6 59155.6 59155.6 59155.6 59155.6 59155.6 59155.6 59155.6 59155.6 59155.6 59155.6 59155.6 59155.6 59155.6 59155.6 59155.6 59155.6 59155.6 59155.6 59155.6 59155.6 59155.6 59155.6 59155.6 59155.6 59155.6 59155.6 59155.6 59155.6 59155.6 59155.6 59155.6 59155.6 59155.6 59155.6 59155.6 59155.6 59155.6 59155.6 59155.6 59155.6 59155.6 59155.6 59155.6 59155.6 59155.6 59155.6 59155.6 59155.6 59155.6 59155.6 59155.6 59155.6 59155.6 59155.6 59155.6 59155.6 59155.6 59155.6 59155.6 59155.6 59155.6 59155.6 59155.6 59155.6 59155.6 59155.6 59155.6 59155.6 59155.6 59155.6 59155.6 59155.6 59155.6 59155.6 59155.6 59155.6 59155.6 59155.6 59155.6 59155.6 59155.6 59155.6 59155.6 59155.6 59155.6 59155.6 59155.6 59155.6 59155.6 59155.6 59155.6 59155.6 59155.6 59155.6 59155.6 59155.6 59155.6 59155.6 59155.6 59155.6 59155.6 59155.6 59155.6 59155.6 59155.6 59155.6 59155.6 59155.6 59155.6 59155.6 59155.6 59155.6 59155.6 59155.6 59155.6 59155.6 59155.6 59155.6 59155.6 59155.6 59155.6 59155.6 59155.6 59155.6 59155.6 59155.6 59155.6 59155.6 59155.6 59155.6 59155.6 59155.6 59155.6 59155.6 59155.6 59155.6 59155.6 59155.6 59155.6 59155.6 59155.6 59155.6 59155.6 59155.6 59155.6 59155.6 59155.6 59155.6 59155.6 59155.6 59155.6 59155.6 59155.6 59155.6 59155.6 59155.6 59155.6 59155.6 59155.6 59155.6 59155.6 59155.6 59155.6 59155.6 59155.6 59155.6 59155.6 59155.6 59155.6 59155.6 59155.6 59155.6 59155.6 59155.6 59155.6 59155.6 59155.6 59155.6 59155.6 59155.6 59155.6 59155.6 59155.6 59155.6 59155.6 59155.6 59155.6 59155.6 59155.6 59155.6 59155.6 59155.6 59155.6 59155.6 59155.6 59155.6 59155.6 59155.6 59155.6 59155.6 59155.6 59155.6 59155.6 59155.6 59155.6 59155.6 59155.6 59155.6 59155.6 59155.6 59155.6 59155.6 59155.6 59155.6 59155.6 59155.6 59155.6 59155.6 59155.6 59155.6 59155.6 59155.6 59155.6 59155.6 59155.6 59155.6 59155.6 59155.6 59155.6 59155.6 59155.6 59155.6 59155.6 59155.6 59155.6 59155.6 59155.6 59155.6 59155.6 59155.6 59155.6 59155.6 59155.6 59155.6 59155.6 59155.6 59155.6 59155.6 59155.6 59155.6 59155.6 59155.6 59155.6 59155.6 59155.6 59155.6 59155.6 59155.6 59155.6 59155.6 59155.6 59155.6 59155.6 59155.6 59155.6 59155.6 59155.6 59155.6 59155.6 59155.6 59155.6 59155.6 59155.6 59155.6 59155.6 59155.6 59155.6 59155.6 59155.6 59155.6 59155.6 59155.6 59155.6 59155.6 59155.6 59155.6 59155.6 59155.6 59155.6 59155.6 59155.6 59155.6 59155.6 59155.6 59155.6 59155.6 59155.6 59155.6 59155.6 59155.6 59155.6 59155.6 59155.6 59155.6 59155.6 59155.6 59155.6 59155.6 59155.6 59155.6 59155.6 59155.6 59155.6 59155.6 59155.6 59155.6 59155.6 59155.6 59155.6 59155.6 59155.6 59155.6 59155.6 59155.6 59155.6 59155.6 59155.6 59155.6 59155.6 59155.6 59155.6 59155.6 59155.6 59155.6 59155.6 59155.6 59155.6 59155.6 59155.6 59155.6 59155.6 59155.6 59155.6 59155.6 59155.6 59155.6 59155.6 59155.6 59155.6 59155.6 59155.6 59155.6 59155.6 59155.6 59155.6 59155.6 59155.6 59155.6 59155.6 59155.6 59155.6 59155.6 59155.6 59155.6 59155.6 59155.6 59155.6 59155.6 59155.6 59155.6 59155.6 59155.6 59155.6 59155.6 59155.6 59155.6 59155.6 59155.6 59155.6 59155.6 59155.6 59155.6 59155.6 59155.6 59155.6 59155.6 59155.6 59155.6 59155.6 59155.6 59155.6 59155.6 59155.6 59155.6 59155.6 59155.6 59155.6 59155.6 59155.6 59155.6 59155.6 59155.6 59155.6 59155.6 59155.6 59155.6 59155.6 59155.6 59155.6 59155.6 59155.6 59155.6 59155.6 59155.6 59155.6 59155.6 59155.6 59155.6 59155.6 59155.6 59155.6 59155.6 59155.6 59155.6 59155.6 59155.6 59155.6 59155.6 59155.6 59155.6 59155.6 59155.6 59155.6 59155.6 59155.6 59155.6 59155.6 59155.6 59155.6 59155.6 59155.6 59155.6 59155.6 59155.6 59155.6 59155.6 59155.6 59155.6 59155.6 59155.6 59155.6 59155.6 59155.6 59155.6 59155.6 59155.6 59155.6 59155.6 59155.6 59155.6 59155.6 59155.6 59155.6 59155.6 59155.6 59155.6 59155.6 59155.6 59155.6 59155.6 59155.6 59155.6 59155.6 59155.6 59155.6 59155.6 59155.6 59155.6 59155.6 59155.6 59155.6 59155.6 59155.6 59155.6 59155.6 59155.6 59155.6 59155.6 59155.6 59155.6 59155.6 59155.6 59155.6 59155.6 59155.6 59155.6 59155.6 59155.6 59155.6 59155.6 59155.6 59155.6 59155.6 59155.6 59155.6 59155.6 59155.6 59155.6 59155.6 59155.6 59155.6 59155.6 59155.6 59155.6 59155.6 59155.6 59155.6 59155.6 59155.6 59155.6 59155.6 59155.6 59155.6 59155.6 59155.6 59155.6 59155.6 59155.6 59155.6 59155.6 59155.6 59155.6 59155.6 59155.6 59155.6 59155.6 59155.6 59155.6 59155.6 59155.6 59155.6 59155.6 59155.6 59155.6 59155.6 59155.6 59155.6 59155.6 59155.6 59155.6 59155.6 59155.6 59155.6 59155.6 59155.6 59155.6 59155.6 59155.6 59155.6 59155.6 59155.6 59155.6 59155.6 59155.6 59155.6 59155.6 59155.6 59155.6 59155.6 59155.6 59155.6 59155.6 59155.6 59155.6 59155.6 59155.6 59155.6 59155.6 59155.6 59155.6 59155.6 59155.6 59155.6 59155.6 59155.6 59155.6 59155.6 59155.6 59155.6 59155.6 59155.6 59155.6 59155.6 59155.6 59155.6 59155.6 59155.6 59155.6 59155.6 59155.6 59155.6 59155.6 59155.6 59155.6 59155.6 59155.6 59155.6 59155.6 59155.6 59155.6 59155.6 59155.6 59155.6 59155.6 59155.6 59155.6 59155.6 59155.6 59155.6 59155.6 59155.6 59155.6 59155.6 59155.6 59155.6 59155.6 59155.6 59155.6 59155.6 59155.6 59155.6 59155.6 59155.6 59155.6 59155.6 59155.6 59155.6 59155.6 59155.6 59155.6 59155.6 59155.6 59155.6 59155.6 59155.6 59155.6 59155.6 59155.6 59155.6 59155.6 59155.6 59155.6 59155.6 59155.6 59155.6 59155.6 59155.6 59155.6 59155.6 59155.6 59155.6 59155.6 59155.6 59155.6 59155.6 59155.6 59155.6 59155.6 59155.6 59155.6 59155.6 59155.6 59155.6 59155.6 59155.6 59155.6 59155.6 59155.6 59155.6 59155.6 59155.6 59155.6 59155.6 59155.6 59155.6 59155.6 59155.6 59155.6 59155.6 59155.6 59155.6 59155.6 59155.6 59155.6 59155.6 59155.6 59155.6 59155.6 59155.6 59155.6 59155.6 59155.6 59155.6 59155.6 59155.6 59155.6 59155.6 59155.6 59155.6 59155.6 59155.6 59155.6 59155.6 59155.6 59155.6 59155.6 59155.6 59155.6 59155.6 59155.6 59155.6 59155.6 59155.6 59155.6 59155.6 59155.6 59155.6 59155.6 59155.6 59155.6 59155.6 59155.6 59155.6 59155.6 59155.6 59155.6 59155.6 59155.6 59155.6 59155.6 59155.6 59155.6 59155.6 59155.6 59155.6 59155.6 59155.6 59155.6 59155.6 59155.6 59155.6 59155.6 59155.6 59155.6 59155.6 59155.6 59155.6 59155.6 59155.6 59155.6 59155.6 59155.6 59155.6 59155.6 59155.6 59155.6 59155.6 59155.6 59155.6 59155.6 59155.6 59155.6 59155.6 59155.6 59155.6 59155.6 59155.6 59155.6 59155.6 59155.6 59155.6 59155.6 59155.6 59155.6 59155.6 59155.6 59155.6 59155.6 59155.6 59155.6 59155.6 59155.6 59155.6 59155.6 59155.6 59155.6 59155.6 59155.6 59155.6 59155.6 59155.6 59155.6 59155.6 59155.6 59155.6 59155.6 59155.6 59155.6 59155.6 59155.6 59155.6 59155.6 59155.6 59155.6 59155.6 59155.6 59155.6 59155.6 59155.6 59155.6 59155.6 59155.6 59155.6 59155.6 59155.6 59155.6 59155.6 59155.6 59155.6 59155.6 59155.6 59155.6 59155.6 59155.6 59155.6 59155.6 59155.6 59155.6 59155.6 59155.6 59155.6 59155.6 59155.6 59155.6 59155.6 59155.6 59155.6 59155.6 59155.6 59155.6 59155.6 59155.6 59155.6 59155.6 59155.6 59155.6 59155.6 59155.6 59155.6 59155.6 59155.6 59155.6 59155.6 59155.6 59155.6 59155.6 59155.6 59155.6 59155.6 59155.6 59155.6 59155.6 59155.6 59155.6 59155.6 59155.6 59155.6 59155.6 59155.6 59155.6 59155.6 59155.6 59155.6 59155.6 59155.6 59155.6 59155.6 59155.6 59155.6 59155.6 59155.6 59155.6 59155.6 59155.6 59155.6 59155.6 59155.6 59155.6 59155.6 59155.6 59155.6 59155.6 59155.6 59155.6 59155.6 59155.6 59155.6 59155.6 59155.6 59155.6 59155.6 59155.6 59155.6 59155.6 59155.6 59155.6 59155.6 59155.6 59155.6 59155.6 59155.6 59155.6 59155.6 59155.6 59155.6 59155.6 59155.6 59155.6 59155.6 59155.6 59155.6 59155.6 59155.6 59155.6 59155.6 59155.6 59155.6 59155.6 59155.6 59155.6 59155.6 59155.6 59155.6 59155.6 59155.6 59155.6 59155.6 59155.6 59155.6 59155.6 59155.6 59155.6 59155.6 59155.6 59155.6 59155.6 59155.6 59155.6 59155.6 59155.6 59155.6 59155.6 59155.6 59155.6 59155.6 59155.6 59155.6 59155.6 59155.6 59155.6 59155.6 59155.6 59155.6 59155.6 59155.6 59155.6 59155.6 59155.6 59155.6 59155.6 59155.6 59155.6 59155.6 59155.6 59155.6 59155.6 59155.6 59155.6 59155.6 59155.6 59155.6 59155.6 59155.6 59155.6 59155.6 59155.6 59155.6 59155.6 59155.6 59155.6 59155.6 59155.6 59155.6 59155.6 59155.6 59155.6 59155.6 59155.6 59155.6 59155.6 59155.6 59155.6 59155.6 59155.6 59155.6 59155.6 59155.6 59155.6 59155.6 59155.6 59155.6 59155.6 59155.6 59155.6 59155.6 59155.6 59155.6 59155.6 59155.6 59155.6 59155.6 59155.6 59155.6 59155.6 59155.6 59155.6 59155.6 59155.6 59155.6 59155.6 59155.6 59155.6 59155.6 59155.6 59155.6 59155.6 59155.6 59155.6 59155.6 59155.6 59155.6 59155.6 59155.6 59155.6 59155.6 59155.6 59155.6 59155.6 59155.6 59155.6 59155.6 59155.6 59155.6 59155.6 59155.6 59155.6 59155.6 59155.6 59155.6 59155.6 59155.6 59155.6 59155.6 59155.6 59155.6 59155.6 59155.6 59155.6 59155.6 59155.6 59155.6 59155.6 59155.6 59155.6 59155.6 59155.6 59155.6 59155.6 59155.6 59155.6 59155.6 59155.6 59155.6 59155.6 59155.6 59155.6 59155.6 59155.6 59155.6 59155.6 59155.6 59155.6 59155.6 59155.6 59155.6 59155.6 59155.6 59155.6 59155.6 59155.6 59155.6 59155.6 59155.6 59155.6 59155.6 59155.6 59155.6 59155.6 59155.6 59155.6 59155.6 59155.6 59155.6 59155.6 59155.6 59155.6 59155.6 59155.6 59155.6 59155.6 59155.6 59155.6 59155.6 59155.6 59155.6 59155.6 59155.6 59155.6 59155.6 59155.6 59155.6 59155.6 59155.6 59155.6 59155.6 59155.6 59155.6 59155.6 59155.6 59155.6 59155.6 59155.6 59155.6 59155.6 59155.6 59155.6 59155.6 59155.6 59155.6 59155.6 59155.6 59155.6 59155.6 59155.6 59155.6 59155.6 59155.6 59155.6 59155.6 59155.6 59155.6 59155.6 59155.6 59155.6 59155.6 59155.6 59155.6 59155.6 59155.6 59155.6 59155.6 59155.6 59155.6 59155.6 59155.6 59155.6 59155.6 59155.6 59155.6 59155.6 59155.6 59155.6 59155.6 59155.6 59155.6 59155.6 59155.6 59155.6 59155.6 59155.6 59155.6 59155.6 59155.6 59155.6 59155.6 59155.6 59155.6 59155.6 59155.6 59155.6 59155.6 59155.6 59155.6 59155.6 59155.6 59155.6 59155.6 59155.6 59155.6 59155.6 59155.6 59155.6 59155.6 59155.6 59155.6 59155.6 59155.6 59155.6 59155.6 59155.6 59155.6 59155.6 59155.6 59155.6 59155.6 59155.6 59155.6 59155.6 59155.6 59155.6 59155.6 59155.6 59155.6 59155.6 59155.6
2 29 48 45 26 4 35 42 5 32 20 33 31 44 38 1 8 9 46 27 17 37 19 18 12 47 25 34 16 41 15 11 23 3 22 14 13 40 36 43 30 6 7 28 21 39 24 10
1 8 38 31 44 18 7 28 6 37 19 27 17 43 30 36 46 33 20 47 21 32 39 48 5 42 24 10 45 35 4 26 2 29 34 41 16 22 3 23 14 25 13 11 12 15 40 9
